c n orig vars 80
p cnf 298 908
81 -1 0
81 -2 0
-81 1 2 0
82 -3 0
82 -4 0
-82 3 4 0
83 -5 0
83 -6 0
-83 5 6 0
84 -7 0
84 -8 0
-84 7 8 0
85 -9 0
85 -10 0
-85 9 10 0
86 -11 0
86 -12 0
-86 11 12 0
87 -13 0
87 -14 0
-87 13 14 0
88 -15 0
88 -16 0
-88 15 16 0
89 -17 0
89 -18 0
-89 17 18 0
90 -19 0
90 -20 0
-90 19 20 0
91 -21 0
91 -22 0
-91 21 22 0
92 -23 0
92 -24 0
-92 23 24 0
-93 81 0
-93 82 0
-93 83 0
-93 84 0
-93 85 0
-93 86 0
-93 87 0
-93 88 0
-93 89 0
-93 90 0
-93 91 0
-93 92 0
93 -81 -82 -83 -84 -85 -86 -87 -88 -89 -90 -91 -92 0
-93 0
94 -25 0
94 -33 0
94 -41 0
94 -49 0
94 -57 0
94 -65 0
94 -73 0
-94 25 33 41 49 57 65 73 0
95 -26 0
95 -34 0
95 -42 0
95 -50 0
95 -58 0
95 -66 0
95 -74 0
-95 26 34 42 50 58 66 74 0
96 -27 0
96 -35 0
96 -43 0
96 -51 0
96 -59 0
96 -67 0
96 -75 0
-96 27 35 43 51 59 67 75 0
97 -28 0
97 -36 0
97 -44 0
97 -52 0
97 -60 0
97 -68 0
97 -76 0
-97 28 36 44 52 60 68 76 0
98 -29 0
98 -37 0
98 -45 0
98 -53 0
98 -61 0
98 -69 0
98 -77 0
-98 29 37 45 53 61 69 77 0
99 -30 0
99 -38 0
99 -46 0
99 -54 0
99 -62 0
99 -70 0
99 -78 0
-99 30 38 46 54 62 70 78 0
100 -31 0
100 -39 0
100 -47 0
100 -55 0
100 -63 0
100 -71 0
100 -79 0
-100 31 39 47 55 63 71 79 0
101 -32 0
101 -40 0
101 -48 0
101 -56 0
101 -64 0
101 -72 0
101 -80 0
-101 32 40 48 56 64 72 80 0
102 25 0
102 26 0
-102 -25 -26 0
103 25 0
103 27 0
-103 -25 -27 0
104 25 0
104 28 0
-104 -25 -28 0
105 25 0
105 29 0
-105 -25 -29 0
106 25 0
106 30 0
-106 -25 -30 0
107 25 0
107 31 0
-107 -25 -31 0
108 25 0
108 32 0
-108 -25 -32 0
109 26 0
109 27 0
-109 -26 -27 0
110 26 0
110 28 0
-110 -26 -28 0
111 26 0
111 29 0
-111 -26 -29 0
112 26 0
112 30 0
-112 -26 -30 0
113 26 0
113 31 0
-113 -26 -31 0
114 26 0
114 32 0
-114 -26 -32 0
115 27 0
115 28 0
-115 -27 -28 0
116 27 0
116 29 0
-116 -27 -29 0
117 27 0
117 30 0
-117 -27 -30 0
118 27 0
118 31 0
-118 -27 -31 0
119 27 0
119 32 0
-119 -27 -32 0
120 28 0
120 29 0
-120 -28 -29 0
121 28 0
121 30 0
-121 -28 -30 0
122 28 0
122 31 0
-122 -28 -31 0
123 28 0
123 32 0
-123 -28 -32 0
124 29 0
124 30 0
-124 -29 -30 0
125 29 0
125 31 0
-125 -29 -31 0
126 29 0
126 32 0
-126 -29 -32 0
127 30 0
127 31 0
-127 -30 -31 0
128 30 0
128 32 0
-128 -30 -32 0
129 31 0
129 32 0
-129 -31 -32 0
130 33 0
130 34 0
-130 -33 -34 0
131 33 0
131 35 0
-131 -33 -35 0
132 33 0
132 36 0
-132 -33 -36 0
133 33 0
133 37 0
-133 -33 -37 0
134 33 0
134 38 0
-134 -33 -38 0
135 33 0
135 39 0
-135 -33 -39 0
136 33 0
136 40 0
-136 -33 -40 0
137 34 0
137 35 0
-137 -34 -35 0
138 34 0
138 36 0
-138 -34 -36 0
139 34 0
139 37 0
-139 -34 -37 0
140 34 0
140 38 0
-140 -34 -38 0
141 34 0
141 39 0
-141 -34 -39 0
142 34 0
142 40 0
-142 -34 -40 0
143 35 0
143 36 0
-143 -35 -36 0
144 35 0
144 37 0
-144 -35 -37 0
145 35 0
145 38 0
-145 -35 -38 0
146 35 0
146 39 0
-146 -35 -39 0
147 35 0
147 40 0
-147 -35 -40 0
148 36 0
148 37 0
-148 -36 -37 0
149 36 0
149 38 0
-149 -36 -38 0
150 36 0
150 39 0
-150 -36 -39 0
151 36 0
151 40 0
-151 -36 -40 0
152 37 0
152 38 0
-152 -37 -38 0
153 37 0
153 39 0
-153 -37 -39 0
154 37 0
154 40 0
-154 -37 -40 0
155 38 0
155 39 0
-155 -38 -39 0
156 38 0
156 40 0
-156 -38 -40 0
157 39 0
157 40 0
-157 -39 -40 0
158 41 0
158 42 0
-158 -41 -42 0
159 41 0
159 43 0
-159 -41 -43 0
160 41 0
160 44 0
-160 -41 -44 0
161 41 0
161 45 0
-161 -41 -45 0
162 41 0
162 46 0
-162 -41 -46 0
163 41 0
163 47 0
-163 -41 -47 0
164 41 0
164 48 0
-164 -41 -48 0
165 42 0
165 43 0
-165 -42 -43 0
166 42 0
166 44 0
-166 -42 -44 0
167 42 0
167 45 0
-167 -42 -45 0
168 42 0
168 46 0
-168 -42 -46 0
169 42 0
169 47 0
-169 -42 -47 0
170 42 0
170 48 0
-170 -42 -48 0
171 43 0
171 44 0
-171 -43 -44 0
172 43 0
172 45 0
-172 -43 -45 0
173 43 0
173 46 0
-173 -43 -46 0
174 43 0
174 47 0
-174 -43 -47 0
175 43 0
175 48 0
-175 -43 -48 0
176 44 0
176 45 0
-176 -44 -45 0
177 44 0
177 46 0
-177 -44 -46 0
178 44 0
178 47 0
-178 -44 -47 0
179 44 0
179 48 0
-179 -44 -48 0
180 45 0
180 46 0
-180 -45 -46 0
181 45 0
181 47 0
-181 -45 -47 0
182 45 0
182 48 0
-182 -45 -48 0
183 46 0
183 47 0
-183 -46 -47 0
184 46 0
184 48 0
-184 -46 -48 0
185 47 0
185 48 0
-185 -47 -48 0
186 49 0
186 50 0
-186 -49 -50 0
187 49 0
187 51 0
-187 -49 -51 0
188 49 0
188 52 0
-188 -49 -52 0
189 49 0
189 53 0
-189 -49 -53 0
190 49 0
190 54 0
-190 -49 -54 0
191 49 0
191 55 0
-191 -49 -55 0
192 49 0
192 56 0
-192 -49 -56 0
193 50 0
193 51 0
-193 -50 -51 0
194 50 0
194 52 0
-194 -50 -52 0
195 50 0
195 53 0
-195 -50 -53 0
196 50 0
196 54 0
-196 -50 -54 0
197 50 0
197 55 0
-197 -50 -55 0
198 50 0
198 56 0
-198 -50 -56 0
199 51 0
199 52 0
-199 -51 -52 0
200 51 0
200 53 0
-200 -51 -53 0
201 51 0
201 54 0
-201 -51 -54 0
202 51 0
202 55 0
-202 -51 -55 0
203 51 0
203 56 0
-203 -51 -56 0
204 52 0
204 53 0
-204 -52 -53 0
205 52 0
205 54 0
-205 -52 -54 0
206 52 0
206 55 0
-206 -52 -55 0
207 52 0
207 56 0
-207 -52 -56 0
208 53 0
208 54 0
-208 -53 -54 0
209 53 0
209 55 0
-209 -53 -55 0
210 53 0
210 56 0
-210 -53 -56 0
211 54 0
211 55 0
-211 -54 -55 0
212 54 0
212 56 0
-212 -54 -56 0
213 55 0
213 56 0
-213 -55 -56 0
214 57 0
214 58 0
-214 -57 -58 0
215 57 0
215 59 0
-215 -57 -59 0
216 57 0
216 60 0
-216 -57 -60 0
217 57 0
217 61 0
-217 -57 -61 0
218 57 0
218 62 0
-218 -57 -62 0
219 57 0
219 63 0
-219 -57 -63 0
220 57 0
220 64 0
-220 -57 -64 0
221 58 0
221 59 0
-221 -58 -59 0
222 58 0
222 60 0
-222 -58 -60 0
223 58 0
223 61 0
-223 -58 -61 0
224 58 0
224 62 0
-224 -58 -62 0
225 58 0
225 63 0
-225 -58 -63 0
226 58 0
226 64 0
-226 -58 -64 0
227 59 0
227 60 0
-227 -59 -60 0
228 59 0
228 61 0
-228 -59 -61 0
229 59 0
229 62 0
-229 -59 -62 0
230 59 0
230 63 0
-230 -59 -63 0
231 59 0
231 64 0
-231 -59 -64 0
232 60 0
232 61 0
-232 -60 -61 0
233 60 0
233 62 0
-233 -60 -62 0
234 60 0
234 63 0
-234 -60 -63 0
235 60 0
235 64 0
-235 -60 -64 0
236 61 0
236 62 0
-236 -61 -62 0
237 61 0
237 63 0
-237 -61 -63 0
238 61 0
238 64 0
-238 -61 -64 0
239 62 0
239 63 0
-239 -62 -63 0
240 62 0
240 64 0
-240 -62 -64 0
241 63 0
241 64 0
-241 -63 -64 0
242 65 0
242 66 0
-242 -65 -66 0
243 65 0
243 67 0
-243 -65 -67 0
244 65 0
244 68 0
-244 -65 -68 0
245 65 0
245 69 0
-245 -65 -69 0
246 65 0
246 70 0
-246 -65 -70 0
247 65 0
247 71 0
-247 -65 -71 0
248 65 0
248 72 0
-248 -65 -72 0
249 66 0
249 67 0
-249 -66 -67 0
250 66 0
250 68 0
-250 -66 -68 0
251 66 0
251 69 0
-251 -66 -69 0
252 66 0
252 70 0
-252 -66 -70 0
253 66 0
253 71 0
-253 -66 -71 0
254 66 0
254 72 0
-254 -66 -72 0
255 67 0
255 68 0
-255 -67 -68 0
256 67 0
256 69 0
-256 -67 -69 0
257 67 0
257 70 0
-257 -67 -70 0
258 67 0
258 71 0
-258 -67 -71 0
259 67 0
259 72 0
-259 -67 -72 0
260 68 0
260 69 0
-260 -68 -69 0
261 68 0
261 70 0
-261 -68 -70 0
262 68 0
262 71 0
-262 -68 -71 0
263 68 0
263 72 0
-263 -68 -72 0
264 69 0
264 70 0
-264 -69 -70 0
265 69 0
265 71 0
-265 -69 -71 0
266 69 0
266 72 0
-266 -69 -72 0
267 70 0
267 71 0
-267 -70 -71 0
268 70 0
268 72 0
-268 -70 -72 0
269 71 0
269 72 0
-269 -71 -72 0
270 73 0
270 74 0
-270 -73 -74 0
271 73 0
271 75 0
-271 -73 -75 0
272 73 0
272 76 0
-272 -73 -76 0
273 73 0
273 77 0
-273 -73 -77 0
274 73 0
274 78 0
-274 -73 -78 0
275 73 0
275 79 0
-275 -73 -79 0
276 73 0
276 80 0
-276 -73 -80 0
277 74 0
277 75 0
-277 -74 -75 0
278 74 0
278 76 0
-278 -74 -76 0
279 74 0
279 77 0
-279 -74 -77 0
280 74 0
280 78 0
-280 -74 -78 0
281 74 0
281 79 0
-281 -74 -79 0
282 74 0
282 80 0
-282 -74 -80 0
283 75 0
283 76 0
-283 -75 -76 0
284 75 0
284 77 0
-284 -75 -77 0
285 75 0
285 78 0
-285 -75 -78 0
286 75 0
286 79 0
-286 -75 -79 0
287 75 0
287 80 0
-287 -75 -80 0
288 76 0
288 77 0
-288 -76 -77 0
289 76 0
289 78 0
-289 -76 -78 0
290 76 0
290 79 0
-290 -76 -79 0
291 76 0
291 80 0
-291 -76 -80 0
292 77 0
292 78 0
-292 -77 -78 0
293 77 0
293 79 0
-293 -77 -79 0
294 77 0
294 80 0
-294 -77 -80 0
295 78 0
295 79 0
-295 -78 -79 0
296 78 0
296 80 0
-296 -78 -80 0
297 79 0
297 80 0
-297 -79 -80 0
-298 94 0
-298 95 0
-298 96 0
-298 97 0
-298 98 0
-298 99 0
-298 100 0
-298 101 0
-298 102 0
-298 103 0
-298 104 0
-298 105 0
-298 106 0
-298 107 0
-298 108 0
-298 109 0
-298 110 0
-298 111 0
-298 112 0
-298 113 0
-298 114 0
-298 115 0
-298 116 0
-298 117 0
-298 118 0
-298 119 0
-298 120 0
-298 121 0
-298 122 0
-298 123 0
-298 124 0
-298 125 0
-298 126 0
-298 127 0
-298 128 0
-298 129 0
-298 130 0
-298 131 0
-298 132 0
-298 133 0
-298 134 0
-298 135 0
-298 136 0
-298 137 0
-298 138 0
-298 139 0
-298 140 0
-298 141 0
-298 142 0
-298 143 0
-298 144 0
-298 145 0
-298 146 0
-298 147 0
-298 148 0
-298 149 0
-298 150 0
-298 151 0
-298 152 0
-298 153 0
-298 154 0
-298 155 0
-298 156 0
-298 157 0
-298 158 0
-298 159 0
-298 160 0
-298 161 0
-298 162 0
-298 163 0
-298 164 0
-298 165 0
-298 166 0
-298 167 0
-298 168 0
-298 169 0
-298 170 0
-298 171 0
-298 172 0
-298 173 0
-298 174 0
-298 175 0
-298 176 0
-298 177 0
-298 178 0
-298 179 0
-298 180 0
-298 181 0
-298 182 0
-298 183 0
-298 184 0
-298 185 0
-298 186 0
-298 187 0
-298 188 0
-298 189 0
-298 190 0
-298 191 0
-298 192 0
-298 193 0
-298 194 0
-298 195 0
-298 196 0
-298 197 0
-298 198 0
-298 199 0
-298 200 0
-298 201 0
-298 202 0
-298 203 0
-298 204 0
-298 205 0
-298 206 0
-298 207 0
-298 208 0
-298 209 0
-298 210 0
-298 211 0
-298 212 0
-298 213 0
-298 214 0
-298 215 0
-298 216 0
-298 217 0
-298 218 0
-298 219 0
-298 220 0
-298 221 0
-298 222 0
-298 223 0
-298 224 0
-298 225 0
-298 226 0
-298 227 0
-298 228 0
-298 229 0
-298 230 0
-298 231 0
-298 232 0
-298 233 0
-298 234 0
-298 235 0
-298 236 0
-298 237 0
-298 238 0
-298 239 0
-298 240 0
-298 241 0
-298 242 0
-298 243 0
-298 244 0
-298 245 0
-298 246 0
-298 247 0
-298 248 0
-298 249 0
-298 250 0
-298 251 0
-298 252 0
-298 253 0
-298 254 0
-298 255 0
-298 256 0
-298 257 0
-298 258 0
-298 259 0
-298 260 0
-298 261 0
-298 262 0
-298 263 0
-298 264 0
-298 265 0
-298 266 0
-298 267 0
-298 268 0
-298 269 0
-298 270 0
-298 271 0
-298 272 0
-298 273 0
-298 274 0
-298 275 0
-298 276 0
-298 277 0
-298 278 0
-298 279 0
-298 280 0
-298 281 0
-298 282 0
-298 283 0
-298 284 0
-298 285 0
-298 286 0
-298 287 0
-298 288 0
-298 289 0
-298 290 0
-298 291 0
-298 292 0
-298 293 0
-298 294 0
-298 295 0
-298 296 0
-298 297 0
298 -94 -95 -96 -97 -98 -99 -100 -101 -102 -103 -104 -105 -106 -107 -108 -109 -110 -111 -112 -113 -114 -115 -116 -117 -118 -119 -120 -121 -122 -123 -124 -125 -126 -127 -128 -129 -130 -131 -132 -133 -134 -135 -136 -137 -138 -139 -140 -141 -142 -143 -144 -145 -146 -147 -148 -149 -150 -151 -152 -153 -154 -155 -156 -157 -158 -159 -160 -161 -162 -163 -164 -165 -166 -167 -168 -169 -170 -171 -172 -173 -174 -175 -176 -177 -178 -179 -180 -181 -182 -183 -184 -185 -186 -187 -188 -189 -190 -191 -192 -193 -194 -195 -196 -197 -198 -199 -200 -201 -202 -203 -204 -205 -206 -207 -208 -209 -210 -211 -212 -213 -214 -215 -216 -217 -218 -219 -220 -221 -222 -223 -224 -225 -226 -227 -228 -229 -230 -231 -232 -233 -234 -235 -236 -237 -238 -239 -240 -241 -242 -243 -244 -245 -246 -247 -248 -249 -250 -251 -252 -253 -254 -255 -256 -257 -258 -259 -260 -261 -262 -263 -264 -265 -266 -267 -268 -269 -270 -271 -272 -273 -274 -275 -276 -277 -278 -279 -280 -281 -282 -283 -284 -285 -286 -287 -288 -289 -290 -291 -292 -293 -294 -295 -296 -297 0
-298 0
